
Log started (V11.0.0) Fri May 16 01:35:40 2008

Tried aggregator 1 time.
Reduced MIP has 230 rows, 6001 columns, and 12030 nonzeros.
Presolve time =    0.05 sec.
Clique table members: 200.
MIP emphasis: balance optimality and feasibility.
MIP search method: dynamic search.
Parallel mode: none, using 1 thread.
Root relaxation solution time =    0.23 sec.

        Nodes                                         Cuts/
   Node  Left     Objective  IInf  Best Integer     Best Node    ItCnt     Gap

*     0+    0                         4946.0000      258.8987      498   94.77%
*     0+    0                          307.0000      258.8987      498   15.67%
      0     0      259.4938    60      307.0000      Fract: 6      520   15.47%
*     0+    0                          306.0000      259.4938      520   15.20%
      0     0      266.0954    71      306.0000      Cuts: 24      990   13.04%
*     0+    0                          303.0000      266.0954      990   12.18%
      0     0      266.7254    76      303.0000       Cuts: 6     1164   11.97%
      0     0      266.7256    78      303.0000       Cuts: 7     1193   11.97%
      0     0      266.7322    81      303.0000       Cuts: 5     1208   11.97%
*     0+    0                          302.0000      266.7322     1208   11.68%
*     0+    0                          299.0000      266.7322     1208   10.79%
*     0+    0                          297.0000      266.7322     1208   10.19%
*     0+    0                          296.0000      266.7322     1208    9.89%
*     0+    0                          293.0000      266.7322     1208    8.97%
*     0+    0                          287.0000      266.7322     1208    7.06%
*     0+    0                          286.0000      266.7322     1208    6.74%
      0     2      267.0000    73      286.0000      266.7322     1208    6.74%
*    10+   10                          284.0000      267.0000     1285    5.99%
    100    73      267.0000    51      284.0000      267.0000    10399    5.99%
    200   133      267.0000    53      284.0000      267.0000    22987    5.99%
    300   208      268.4868    61      284.0000      267.0000    30295    5.99%
    400   282      268.0000    48      284.0000      267.0000    35066    5.99%
*   486+  225                          280.0000      274.6827    43060    1.90%
*   486+  149                          279.0000      274.6827    43060    1.55%
    500   153      278.0000    28      279.0000      275.0000    43319    1.43%
    600   159      278.0000    25      279.0000      275.0000    46036    1.43%
    700   146    infeasible            279.0000      275.0000    49293    1.43%
    800   151    infeasible            279.0000      278.0000    54776    0.36%
    900    51    infeasible            279.0000      278.0000    64116    0.36%

Cover cuts applied:  32
Mixed integer rounding cuts applied:  12
Gomory fractional cuts applied:  2

Solution pool: 14 solutions saved.

MIP - Integer optimal solution:  Objective = 2.7900000000e+002
Solution time =   41.09 sec.  Iterations = 68767  Nodes = 952


Incumbent solution
Variable Name           Solution Value
Cmax                        279.000000
X_1_14                        1.000000
X_2_14                        1.000000
X_3_9                         1.000000
X_4_30                        1.000000
X_5_30                        1.000000
X_6_5                         1.000000
X_7_28                        1.000000
X_8_14                        1.000000
X_9_29                        1.000000
X_10_30                       1.000000
X_11_19                       1.000000
X_12_30                       1.000000
X_13_9                        1.000000
X_14_29                       1.000000
X_15_25                       1.000000
X_16_5                        1.000000
X_17_27                       1.000000
X_18_11                       1.000000
X_19_25                       1.000000
X_20_23                       1.000000
X_21_1                        1.000000
X_22_21                       1.000000
X_23_10                       1.000000
X_24_15                       1.000000
X_25_29                       1.000000
X_26_4                        1.000000
X_27_7                        1.000000
X_28_5                        1.000000
X_29_23                       1.000000
X_30_15                       1.000000
X_31_26                       1.000000
X_32_7                        1.000000
X_33_30                       1.000000
X_34_20                       1.000000
X_35_8                        1.000000
X_36_17                       1.000000
X_37_5                        1.000000
X_38_16                       1.000000
X_39_18                       1.000000
X_40_25                       1.000000
X_41_24                       1.000000
X_42_5                        1.000000
X_43_12                       1.000000
X_44_30                       1.000000
X_45_16                       1.000000
X_46_25                       1.000000
X_47_26                       1.000000
X_48_12                       1.000000
X_49_23                       1.000000
X_50_5                        1.000000
X_51_3                        1.000000
X_52_25                       1.000000
X_53_2                        1.000000
X_54_5                        1.000000
X_55_5                        1.000000
X_56_11                       1.000000
X_57_22                       1.000000
X_58_5                        1.000000
X_59_1                        1.000000
X_60_30                       1.000000
X_61_20                       1.000000
X_62_21                       1.000000
X_63_6                        1.000000
X_64_21                       1.000000
X_65_27                       1.000000
X_66_30                       1.000000
X_67_14                       1.000000
X_68_30                       1.000000
X_69_14                       1.000000
X_70_25                       1.000000
X_71_5                        1.000000
X_72_5                        1.000000
X_73_8                        1.000000
X_74_5                        1.000000
X_75_5                        1.000000
X_76_14                       1.000000
X_77_5                        1.000000
X_78_14                       1.000000
X_79_16                       1.000000
X_80_25                       1.000000
X_81_27                       1.000000
X_82_24                       1.000000
X_83_6                        1.000000
X_84_10                       1.000000
X_85_10                       1.000000
X_86_29                       1.000000
X_87_8                        1.000000
X_88_30                       1.000000
X_89_9                        1.000000
X_90_5                        1.000000
X_91_5                        1.000000
X_92_5                        1.000000
X_93_30                       1.000000
X_94_18                       1.000000
X_95_5                        1.000000
X_96_29                       1.000000
X_97_16                       1.000000
X_98_5                        1.000000
X_99_5                        1.000000
X_100_2                       1.000000
X_101_9                       1.000000
X_102_26                      1.000000
X_103_26                      1.000000
X_104_24                      1.000000
X_105_17                      1.000000
X_106_5                       1.000000
X_107_13                      1.000000
X_108_27                      1.000000
X_109_29                      1.000000
X_110_25                      1.000000
X_111_17                      1.000000
X_112_26                      1.000000
X_113_29                      1.000000
X_114_18                      1.000000
X_115_30                      1.000000
X_116_19                      1.000000
X_117_5                       1.000000
X_118_5                       1.000000
X_119_25                      1.000000
X_120_20                      1.000000
X_121_13                      1.000000
X_122_5                       1.000000
X_123_4                       1.000000
X_124_14                      1.000000
X_125_21                      1.000000
X_126_30                      1.000000
X_127_5                       1.000000
X_128_5                       1.000000
X_129_30                      1.000000
X_130_19                      1.000000
X_131_21                      1.000000
X_132_25                      1.000000
X_133_12                      1.000000
X_134_1                       1.000000
X_135_16                      1.000000
X_136_11                      1.000000
X_137_24                      1.000000
X_138_5                       1.000000
X_139_26                      1.000000
X_140_5                       1.000000
X_141_26                      1.000000
X_142_21                      1.000000
X_143_5                       1.000000
X_144_5                       1.000000
X_145_14                      1.000000
X_146_18                      1.000000
X_147_22                      1.000000
X_148_28                      1.000000
X_149_14                      1.000000
X_150_28                      1.000000
X_151_25                      1.000000
X_152_5                       1.000000
X_153_14                      1.000000
X_154_9                       1.000000
X_155_18                      1.000000
X_156_29                      1.000000
X_157_16                      1.000000
X_158_5                       1.000000
X_159_11                      1.000000
X_160_10                      1.000000
X_161_25                      1.000000
X_162_23                      1.000000
X_163_24                      1.000000
X_164_30                      1.000000
X_165_14                      1.000000
X_166_25                      1.000000
X_167_29                      1.000000
X_168_30                      1.000000
X_169_27                      1.000000
X_170_24                      1.000000
X_171_5                       1.000000
X_172_5                       1.000000
X_173_29                      1.000000
X_174_28                      1.000000
X_175_15                      1.000000
X_176_24                      1.000000
X_177_7                       1.000000
X_178_3                       1.000000
X_179_22                      1.000000
X_180_11                      1.000000
X_181_2                       1.000000
X_182_5                       1.000000
X_183_29                      1.000000
X_184_25                      1.000000
X_185_5                       1.000000
X_186_6                       1.000000
X_187_5                       1.000000
X_188_21                      1.000000
X_189_30                      1.000000
X_190_26                      1.000000
X_191_24                      1.000000
X_192_28                      1.000000
X_193_5                       1.000000
X_194_21                      1.000000
X_195_5                       1.000000
X_196_14                      1.000000
X_197_28                      1.000000
X_198_5                       1.000000
X_199_3                       1.000000
X_200_13                      1.000000
All other variables in the range 1-6001 are 0.
